120
150
31
24
21
76
87
59
40
55
55
24
40
86
59
90
45
24
24
55
58
92
38
87
49
24
77
55
44
51
35
81
34
24
78
48
86
66
45
39
53
27
38
32
55
96
80
70
41
100
63
37
50
40
63
67
83
35
28
87
80
33
37
58
92
56
94
81
58
32
55
79
71
63
38
49
55
32
63
49
100
83
35
76
41
33
43
28
87
63
48
32
70
71
79
63
87
59
90
74
96
49
63
87
81
77
81
29
40
58
92
76
76
82
33
35
100
45
50
100
58
92
